language Essence 1.3

letting p be
        partition({1, 7, 8, 11, 12, 15, 26, 27, 28, 31, 32, 34, 39, 40, 42, 48, 49, 53, 59, 62},
                  {2, 6, 9, 13, 17, 20, 22, 23, 24, 29, 36, 44, 45, 47, 50, 51, 52, 54, 55},
                  {3, 4, 5, 10, 14, 16, 18, 19, 21, 25, 30, 33, 35, 37, 38, 41, 43, 46, 56, 57, 58, 60, 61, 63, 64})
